NAME : XML100_1162_06
DIMENSION : 101
NB_CLUSTERS : 27
CLUSTERING_ALG : DBSCAN
CLUSTERING_PARAMS : eps(62), minSamples(3)
CLUSTERS
1 0
2 1 28 94
3 2 6 16 23 58 77 78 96
4 3 7 10 36 44 50 95
5 9 35 43 69 85 86
6 12 21 24 38 41 51 54 55 76 93
7 4 25 45 79 98
8 14 34 62 74
9 8 42 53
10 22 65 71 88
11 11 17 18 80
12 5 32 46 61 73 84 100
13 39 47
14 26 83
15 31 82
16 59 64
17 15 27 40 90
18 56 63 92
19 87 91
20 57 66
21 30 52 81
22 37 48 72
23 20 29 60
24 19 49 70
25 33 67 89 99
26 13 75
27 68 97
EOF